p cnf 114 16
c ind 59 60 61 62 63 64 66 67 68 69 0
c ind 70 71 75 76 77 78 79 80 81 82 0
c ind 83 84 85 86 87 88 89 90 91 92 0
c ind 93 94 95 96 97 98 99 100 101 102 0
c ind 103 104 105 106 107 108 109 110 111 112 0
c ind 65 72 73 74 1 0
c ret 13 47 48 49 14 50 51 52 53 54 0
c ret 55 56 57 58 15 5 16 17 18 19 0
c ret 20 21 6 22 23 24 25 26 7 27 0
c ret 28 29 30 31 32 8 33 34 35 36 0
c ret 37 9 38 39 10 40 41 42 11 43 0
c ret 44 12 45 46 0
2 3 -4 -73 -74 0
-2 4 0
-2 73 0
-2 74 0
-2 -3 0
3 -11 -18 -19 -20 0
-3 20 0
-3 11 0
-3 19 0
-3 18 0
4 -65 -72 0
-4 65 0
-4 72 0
1 2 0
-1 -2 0
113 0

